c Generated map
c Size: 13 * 13, weights in range: 1 to 10, walls: True, with ratio 0.1
c dim 3 of 3
c
p sp 169 255
c graph contains 169 nodes and 255 arcs
c
a 1 14 5
a 14 1 5
a 1 2 8
a 2 1 8
a 2 15 4
a 15 2 4
a 2 3 5
a 3 2 5
a 3 16 1
a 16 3 1
a 3 4 2
a 4 3 2
a 4 17 7
a 17 4 7
a 6 19 4
a 19 6 4
a 6 7 6
a 7 6 6
a 7 20 8
a 20 7 8
a 7 8 4
a 8 7 4
a 8 21 5
a 21 8 5
a 8 9 10
a 9 8 10
a 9 22 5
a 22 9 5
a 9 10 9
a 10 9 9
a 10 23 3
a 23 10 3
a 10 11 7
a 11 10 7
a 11 24 2
a 24 11 2
a 13 26 10
a 26 13 10
a 14 27 1
a 27 14 1
a 14 15 2
a 15 14 2
a 15 28 7
a 28 15 7
a 15 16 9
a 16 15 9
a 16 29 1
a 29 16 1
a 16 17 5
a 17 16 5
a 17 30 10
a 30 17 10
a 17 18 5
a 18 17 5
a 18 31 7
a 31 18 7
a 18 19 6
a 19 18 6
a 19 32 6
a 32 19 6
a 19 20 7
a 20 19 7
a 20 33 6
a 33 20 6
a 20 21 9
a 21 20 9
a 21 34 4
a 34 21 4
a 21 22 3
a 22 21 3
a 22 35 7
a 35 22 7
a 22 23 5
a 23 22 5
a 23 36 4
a 36 23 4
a 23 24 2
a 24 23 2
a 24 37 1
a 37 24 1
a 24 25 10
a 25 24 10
a 25 38 3
a 38 25 3
a 25 26 3
a 26 25 3
a 26 39 7
a 39 26 7
a 27 40 4
a 40 27 4
a 27 28 1
a 28 27 1
a 28 41 7
a 41 28 7
a 28 29 7
a 29 28 7
a 29 42 9
a 42 29 9
a 29 30 4
a 30 29 4
a 30 43 3
a 43 30 3
a 30 31 2
a 31 30 2
a 31 44 5
a 44 31 5
a 31 32 3
a 32 31 3
a 32 45 5
a 45 32 5
a 32 33 3
a 33 32 3
a 33 46 8
a 46 33 8
a 33 34 1
a 34 33 1
a 34 47 6
a 47 34 6
a 34 35 10
a 35 34 10
a 35 36 7
a 36 35 7
a 36 49 4
a 49 36 4
a 36 37 5
a 37 36 5
a 37 50 2
a 50 37 2
a 37 38 10
a 38 37 10
a 38 51 10
a 51 38 10
a 38 39 10
a 39 38 10
a 39 52 1
a 52 39 1
a 40 53 10
a 53 40 10
a 40 41 9
a 41 40 9
a 41 54 9
a 54 41 9
a 41 42 2
a 42 41 2
a 42 55 7
a 55 42 7
a 42 43 6
a 43 42 6
a 43 56 4
a 56 43 4
a 43 44 7
a 44 43 7
a 44 45 10
a 45 44 10
a 45 58 8
a 58 45 8
a 45 46 5
a 46 45 5
a 46 59 2
a 59 46 2
a 46 47 6
a 47 46 6
a 47 60 9
a 60 47 9
a 49 62 9
a 62 49 9
a 49 50 4
a 50 49 4
a 50 63 3
a 63 50 3
a 50 51 4
a 51 50 4
a 51 64 7
a 64 51 7
a 51 52 6
a 52 51 6
a 53 66 5
a 66 53 5
a 53 54 10
a 54 53 10
a 54 67 9
a 67 54 9
a 54 55 4
a 55 54 4
a 55 68 7
a 68 55 7
a 55 56 5
a 56 55 5
a 56 69 10
a 69 56 10
a 58 71 2
a 71 58 2
a 58 59 5
a 59 58 5
a 59 72 8
a 72 59 8
a 59 60 1
a 60 59 1
a 60 73 1
a 73 60 1
a 60 61 2
a 61 60 2
a 61 74 5
a 74 61 5
a 61 62 7
a 62 61 7
a 62 75 8
a 75 62 8
a 62 63 8
a 63 62 8
a 63 76 4
a 76 63 4
a 63 64 6
a 64 63 6
a 64 77 8
a 77 64 8
a 66 79 8
a 79 66 8
a 66 67 9
a 67 66 9
a 67 80 3
a 80 67 3
a 67 68 6
a 68 67 6
a 68 69 6
a 69 68 6
a 69 82 4
a 82 69 4
a 69 70 9
a 70 69 9
a 70 83 2
a 83 70 2
a 70 71 8
a 71 70 8
a 71 84 6
a 84 71 6
a 71 72 5
a 72 71 5
a 72 85 7
a 85 72 7
a 72 73 9
a 73 72 9
a 73 86 2
a 86 73 2
a 73 74 2
a 74 73 2
a 74 87 8
a 87 74 8
a 74 75 3
a 75 74 3
a 75 88 7
a 88 75 7
a 75 76 1
a 76 75 1
a 76 89 4
a 89 76 4
a 76 77 9
a 77 76 9
a 77 90 10
a 90 77 10
a 77 78 9
a 78 77 9
a 78 91 3
a 91 78 3
a 79 92 5
a 92 79 5
a 79 80 4
a 80 79 4
a 80 93 3
a 93 80 3
a 82 95 2
a 95 82 2
a 82 83 10
a 83 82 10
a 83 96 8
a 96 83 8
a 83 84 2
a 84 83 2
a 84 97 10
a 97 84 10
a 84 85 6
a 85 84 6
a 85 98 5
a 98 85 5
a 85 86 1
a 86 85 1
a 86 99 10
a 99 86 10
a 86 87 6
a 87 86 6
a 87 100 10
a 100 87 10
a 87 88 3
a 88 87 3
a 88 101 4
a 101 88 4
a 88 89 7
a 89 88 7
a 89 102 7
a 102 89 7
a 89 90 3
a 90 89 3
a 90 103 5
a 103 90 5
a 90 91 1
a 91 90 1
a 92 105 3
a 105 92 3
a 92 93 3
a 93 92 3
a 93 106 10
a 106 93 10
a 93 94 3
a 94 93 3
a 94 107 5
a 107 94 5
a 94 95 9
a 95 94 9
a 95 108 4
a 108 95 4
a 95 96 8
a 96 95 8
a 96 109 7
a 109 96 7
a 96 97 9
a 97 96 9
a 97 110 6
a 110 97 6
a 97 98 4
a 98 97 4
a 98 111 8
a 111 98 8
a 98 99 9
a 99 98 9
a 99 112 9
a 112 99 9
a 99 100 9
a 100 99 9
a 100 113 5
a 113 100 5
a 100 101 9
a 101 100 9
a 101 114 9
a 114 101 9
a 101 102 10
a 102 101 10
a 102 115 5
a 115 102 5
a 102 103 1
a 103 102 1
a 103 116 1
a 116 103 1
a 105 118 7
a 118 105 7
a 105 106 9
a 106 105 9
a 106 119 9
a 119 106 9
a 106 107 5
a 107 106 5
a 107 108 5
a 108 107 5
a 108 109 1
a 109 108 1
a 109 122 6
a 122 109 6
a 109 110 7
a 110 109 7
a 110 123 7
a 123 110 7
a 110 111 6
a 111 110 6
a 111 124 6
a 124 111 6
a 111 112 2
a 112 111 2
a 112 125 5
a 125 112 5
a 112 113 3
a 113 112 3
a 113 126 3
a 126 113 3
a 113 114 6
a 114 113 6
a 114 115 2
a 115 114 2
a 115 128 6
a 128 115 6
a 115 116 6
a 116 115 6
a 116 129 2
a 129 116 2
a 116 117 7
a 117 116 7
a 117 130 8
a 130 117 8
a 118 131 1
a 131 118 1
a 118 119 10
a 119 118 10
a 119 132 1
a 132 119 1
a 122 123 1
a 123 122 1
a 123 136 10
a 136 123 10
a 123 124 8
a 124 123 8
a 124 125 1
a 125 124 1
a 125 126 7
a 126 125 7
a 126 139 8
a 139 126 8
a 128 141 9
a 141 128 9
a 128 129 8
a 129 128 8
a 129 142 1
a 142 129 1
a 129 130 9
a 130 129 9
a 130 143 4
a 143 130 4
a 131 144 2
a 144 131 2
a 131 132 7
a 132 131 7
a 132 145 6
a 145 132 6
a 132 133 5
a 133 132 5
a 133 146 4
a 146 133 4
a 133 134 7
a 134 133 7
a 134 147 6
a 147 134 6
a 136 149 4
a 149 136 4
a 139 152 1
a 152 139 1
a 141 154 6
a 154 141 6
a 141 142 2
a 142 141 2
a 142 155 8
a 155 142 8
a 142 143 3
a 143 142 3
a 144 145 2
a 145 144 2
a 145 158 6
a 158 145 6
a 145 146 6
a 146 145 6
a 146 159 6
a 159 146 6
a 146 147 1
a 147 146 1
a 147 160 3
a 160 147 3
a 147 148 6
a 148 147 6
a 148 161 5
a 161 148 5
a 148 149 7
a 149 148 7
a 149 162 7
a 162 149 7
a 149 150 1
a 150 149 1
a 150 163 7
a 163 150 7
a 152 165 6
a 165 152 6
a 152 153 2
a 153 152 2
a 153 166 1
a 166 153 1
a 153 154 9
a 154 153 9
a 154 167 2
a 167 154 2
a 154 155 4
a 155 154 4
a 155 168 7
a 168 155 7
a 158 159 6
a 159 158 6
a 159 160 3
a 160 159 3
a 160 161 2
a 161 160 2
a 161 162 6
a 162 161 6
a 162 163 7
a 163 162 7
a 163 164 2
a 164 163 2
a 164 165 6
a 165 164 6
a 165 166 6
a 166 165 6
a 166 167 7
a 167 166 7
a 167 168 6
a 168 167 6
a 168 169 3
a 169 168 3
